12-172  [ORCC,ORCC,oS24] (STD_PRIM doi:1
   1.00000000000000     
     2.1272642745359098   -6.8929073090648796    0.0000000000000000
     2.1272642745359098    6.8929073090648796    0.0000000000000000
     0.0000000000000000    0.0000000000000000    2.5711084206531698
   C 
    12
Direct
  0.0765200101495296  0.2913667651310377  0.5000000000000000
  0.9234799898504704  0.7086332348689623  0.5000000000000000
  0.2913667651310377  0.0765200101495296  0.5000000000000000
  0.7086332348689623  0.9234799898504704  0.5000000000000000
  0.6271012308685187  0.7406510454258566  0.0000000000000000
  0.3728987691314813  0.2593489545741434  0.0000000000000000
  0.4581781159131424  0.8719817717757792  0.5000000000000000
  0.5418218840868576  0.1280182282242208  0.5000000000000000
  0.2593489545741434  0.3728987691314813  0.0000000000000000
  0.7406510454258566  0.6271012308685187  0.0000000000000000
  0.8719817717757792  0.4581781159131424  0.5000000000000000
  0.1280182282242208  0.5418218840868576  0.5000000000000000
 
  0.00000000E+00  0.00000000E+00  0.00000000E+00
  0.00000000E+00  0.00000000E+00  0.00000000E+00
  0.00000000E+00  0.00000000E+00  0.00000000E+00
  0.00000000E+00  0.00000000E+00  0.00000000E+00
  0.00000000E+00  0.00000000E+00  0.00000000E+00
  0.00000000E+00  0.00000000E+00  0.00000000E+00
  0.00000000E+00  0.00000000E+00  0.00000000E+00
  0.00000000E+00  0.00000000E+00  0.00000000E+00
  0.00000000E+00  0.00000000E+00  0.00000000E+00
  0.00000000E+00  0.00000000E+00  0.00000000E+00
  0.00000000E+00  0.00000000E+00  0.00000000E+00
  0.00000000E+00  0.00000000E+00  0.00000000E+00
